<?xml version = "1.0" encoding="UTF-8" standalone="yes"?>
<CPLEXSolution version="1.2">
 <header
   problemName=""
   solutionName="incumbent"
   solutionIndex="-1"
   objectiveValue="210"
   solutionTypeValue="3"
   solutionTypeString="primal"
   solutionStatusValue="101"
   solutionStatusString="integer optimal solution"
   solutionMethodString="mip"
   primalFeasible="1"
   dualFeasible="1"
   MIPNodes="0"
   MIPIterations="284"
   writeLevel="1"/>
 <quality
   epInt="1.0000000000000001e-05"
   epRHS="9.9999999999999995e-07"
   maxIntInfeas="0"
   maxPrimalInfeas="0"
   maxX="10"
   maxSlack="9"/>
 <linearConstraints>
  <constraint name="flux" index="0" slack="0"/>
  <constraint name="delta_2" index="1" slack="0"/>
  <constraint name="delta_3" index="2" slack="0"/>
  <constraint name="delta_4" index="3" slack="0"/>
  <constraint name="delta_5" index="4" slack="0"/>
  <constraint name="delta_6" index="5" slack="0"/>
  <constraint name="delta_7" index="6" slack="0"/>
  <constraint name="delta_8" index="7" slack="0"/>
  <constraint name="delta_9" index="8" slack="0"/>
  <constraint name="delta_10" index="9" slack="0"/>
  <constraint name="out_1" index="10" slack="0"/>
  <constraint name="out_2" index="11" slack="0"/>
  <constraint name="out_3" index="12" slack="0"/>
  <constraint name="out_4" index="13" slack="0"/>
  <constraint name="out_5" index="14" slack="0"/>
  <constraint name="out_6" index="15" slack="0"/>
  <constraint name="out_7" index="16" slack="0"/>
  <constraint name="out_8" index="17" slack="0"/>
  <constraint name="out_9" index="18" slack="0"/>
  <constraint name="out_10" index="19" slack="0"/>
  <constraint name="in_1" index="20" slack="0"/>
  <constraint name="in_2" index="21" slack="0"/>
  <constraint name="in_3" index="22" slack="0"/>
  <constraint name="in_4" index="23" slack="0"/>
  <constraint name="in_5" index="24" slack="0"/>
  <constraint name="in_6" index="25" slack="0"/>
  <constraint name="in_7" index="26" slack="0"/>
  <constraint name="in_8" index="27" slack="0"/>
  <constraint name="in_9" index="28" slack="0"/>
  <constraint name="in_10" index="29" slack="0"/>
  <constraint name="att_0_1" index="30" slack="0"/>
  <constraint name="att_0_2" index="31" slack="0"/>
  <constraint name="att_0_3" index="32" slack="0"/>
  <constraint name="att_0_4" index="33" slack="0"/>
  <constraint name="att_0_5" index="34" slack="0"/>
  <constraint name="att_0_6" index="35" slack="0"/>
  <constraint name="att_0_7" index="36" slack="0"/>
  <constraint name="att_0_8" index="37" slack="0"/>
  <constraint name="att_0_9" index="38" slack="0"/>
  <constraint name="att_1_0" index="39" slack="0"/>
  <constraint name="att_1_2" index="40" slack="0"/>
  <constraint name="att_1_3" index="41" slack="0"/>
  <constraint name="att_1_4" index="42" slack="0"/>
  <constraint name="att_1_5" index="43" slack="8"/>
  <constraint name="att_1_6" index="44" slack="0"/>
  <constraint name="att_1_7" index="45" slack="0"/>
  <constraint name="att_1_8" index="46" slack="0"/>
  <constraint name="att_1_9" index="47" slack="0"/>
  <constraint name="att_2_0" index="48" slack="0"/>
  <constraint name="att_2_1" index="49" slack="0"/>
  <constraint name="att_2_3" index="50" slack="0"/>
  <constraint name="att_2_4" index="51" slack="0"/>
  <constraint name="att_2_5" index="52" slack="0"/>
  <constraint name="att_2_6" index="53" slack="1"/>
  <constraint name="att_2_7" index="54" slack="0"/>
  <constraint name="att_2_8" index="55" slack="0"/>
  <constraint name="att_2_9" index="56" slack="0"/>
  <constraint name="att_3_0" index="57" slack="0"/>
  <constraint name="att_3_1" index="58" slack="0"/>
  <constraint name="att_3_2" index="59" slack="0"/>
  <constraint name="att_3_4" index="60" slack="0"/>
  <constraint name="att_3_5" index="61" slack="0"/>
  <constraint name="att_3_6" index="62" slack="0"/>
  <constraint name="att_3_7" index="63" slack="0"/>
  <constraint name="att_3_8" index="64" slack="0"/>
  <constraint name="att_3_9" index="65" slack="5"/>
  <constraint name="att_4_0" index="66" slack="0"/>
  <constraint name="att_4_1" index="67" slack="0"/>
  <constraint name="att_4_2" index="68" slack="0"/>
  <constraint name="att_4_3" index="69" slack="0"/>
  <constraint name="att_4_5" index="70" slack="0"/>
  <constraint name="att_4_6" index="71" slack="0"/>
  <constraint name="att_4_7" index="72" slack="3"/>
  <constraint name="att_4_8" index="73" slack="0"/>
  <constraint name="att_4_9" index="74" slack="0"/>
  <constraint name="att_5_0" index="75" slack="9"/>
  <constraint name="att_5_1" index="76" slack="0"/>
  <constraint name="att_5_2" index="77" slack="0"/>
  <constraint name="att_5_3" index="78" slack="0"/>
  <constraint name="att_5_4" index="79" slack="0"/>
  <constraint name="att_5_6" index="80" slack="0"/>
  <constraint name="att_5_7" index="81" slack="0"/>
  <constraint name="att_5_8" index="82" slack="0"/>
  <constraint name="att_5_9" index="83" slack="0"/>
  <constraint name="att_6_0" index="84" slack="0"/>
  <constraint name="att_6_1" index="85" slack="0"/>
  <constraint name="att_6_2" index="86" slack="0"/>
  <constraint name="att_6_3" index="87" slack="0"/>
  <constraint name="att_6_4" index="88" slack="2"/>
  <constraint name="att_6_5" index="89" slack="0"/>
  <constraint name="att_6_7" index="90" slack="0"/>
  <constraint name="att_6_8" index="91" slack="0"/>
  <constraint name="att_6_9" index="92" slack="0"/>
  <constraint name="att_7_0" index="93" slack="0"/>
  <constraint name="att_7_1" index="94" slack="0"/>
  <constraint name="att_7_2" index="95" slack="0"/>
  <constraint name="att_7_3" index="96" slack="4"/>
  <constraint name="att_7_4" index="97" slack="0"/>
  <constraint name="att_7_5" index="98" slack="0"/>
  <constraint name="att_7_6" index="99" slack="0"/>
  <constraint name="att_7_8" index="100" slack="0"/>
  <constraint name="att_7_9" index="101" slack="0"/>
  <constraint name="att_8_0" index="102" slack="0"/>
  <constraint name="att_8_1" index="103" slack="7"/>
  <constraint name="att_8_2" index="104" slack="0"/>
  <constraint name="att_8_3" index="105" slack="0"/>
  <constraint name="att_8_4" index="106" slack="0"/>
  <constraint name="att_8_5" index="107" slack="0"/>
  <constraint name="att_8_6" index="108" slack="0"/>
  <constraint name="att_8_7" index="109" slack="0"/>
  <constraint name="att_8_9" index="110" slack="0"/>
  <constraint name="att_9_0" index="111" slack="0"/>
  <constraint name="att_9_1" index="112" slack="0"/>
  <constraint name="att_9_2" index="113" slack="0"/>
  <constraint name="att_9_3" index="114" slack="0"/>
  <constraint name="att_9_4" index="115" slack="0"/>
  <constraint name="att_9_5" index="116" slack="0"/>
  <constraint name="att_9_6" index="117" slack="0"/>
  <constraint name="att_9_7" index="118" slack="0"/>
  <constraint name="att_9_8" index="119" slack="6"/>
 </linearConstraints>
 <variables>
  <variable name="x_0,1" index="0" value="0"/>
  <variable name="x_0,2" index="1" value="10"/>
  <variable name="x_0,3" index="2" value="0"/>
  <variable name="x_0,4" index="3" value="0"/>
  <variable name="x_0,5" index="4" value="0"/>
  <variable name="x_0,6" index="5" value="0"/>
  <variable name="x_0,7" index="6" value="0"/>
  <variable name="x_0,8" index="7" value="0"/>
  <variable name="x_0,9" index="8" value="0"/>
  <variable name="x_1,0" index="9" value="0"/>
  <variable name="x_1,2" index="10" value="0"/>
  <variable name="x_1,3" index="11" value="0"/>
  <variable name="x_1,4" index="12" value="0"/>
  <variable name="x_1,5" index="13" value="2"/>
  <variable name="x_1,6" index="14" value="0"/>
  <variable name="x_1,7" index="15" value="0"/>
  <variable name="x_1,8" index="16" value="0"/>
  <variable name="x_1,9" index="17" value="0"/>
  <variable name="x_2,0" index="18" value="0"/>
  <variable name="x_2,1" index="19" value="0"/>
  <variable name="x_2,3" index="20" value="0"/>
  <variable name="x_2,4" index="21" value="0"/>
  <variable name="x_2,5" index="22" value="0"/>
  <variable name="x_2,6" index="23" value="9"/>
  <variable name="x_2,7" index="24" value="0"/>
  <variable name="x_2,8" index="25" value="0"/>
  <variable name="x_2,9" index="26" value="0"/>
  <variable name="x_3,0" index="27" value="0"/>
  <variable name="x_3,1" index="28" value="0"/>
  <variable name="x_3,2" index="29" value="0"/>
  <variable name="x_3,4" index="30" value="0"/>
  <variable name="x_3,5" index="31" value="0"/>
  <variable name="x_3,6" index="32" value="0"/>
  <variable name="x_3,7" index="33" value="0"/>
  <variable name="x_3,8" index="34" value="0"/>
  <variable name="x_3,9" index="35" value="5"/>
  <variable name="x_4,0" index="36" value="0"/>
  <variable name="x_4,1" index="37" value="0"/>
  <variable name="x_4,2" index="38" value="0"/>
  <variable name="x_4,3" index="39" value="0"/>
  <variable name="x_4,5" index="40" value="0"/>
  <variable name="x_4,6" index="41" value="0"/>
  <variable name="x_4,7" index="42" value="7"/>
  <variable name="x_4,8" index="43" value="0"/>
  <variable name="x_4,9" index="44" value="0"/>
  <variable name="x_5,0" index="45" value="1"/>
  <variable name="x_5,1" index="46" value="0"/>
  <variable name="x_5,2" index="47" value="0"/>
  <variable name="x_5,3" index="48" value="0"/>
  <variable name="x_5,4" index="49" value="0"/>
  <variable name="x_5,6" index="50" value="0"/>
  <variable name="x_5,7" index="51" value="0"/>
  <variable name="x_5,8" index="52" value="0"/>
  <variable name="x_5,9" index="53" value="0"/>
  <variable name="x_6,0" index="54" value="0"/>
  <variable name="x_6,1" index="55" value="0"/>
  <variable name="x_6,2" index="56" value="0"/>
  <variable name="x_6,3" index="57" value="0"/>
  <variable name="x_6,4" index="58" value="8"/>
  <variable name="x_6,5" index="59" value="0"/>
  <variable name="x_6,7" index="60" value="0"/>
  <variable name="x_6,8" index="61" value="0"/>
  <variable name="x_6,9" index="62" value="0"/>
  <variable name="x_7,0" index="63" value="0"/>
  <variable name="x_7,1" index="64" value="0"/>
  <variable name="x_7,2" index="65" value="0"/>
  <variable name="x_7,3" index="66" value="6"/>
  <variable name="x_7,4" index="67" value="0"/>
  <variable name="x_7,5" index="68" value="0"/>
  <variable name="x_7,6" index="69" value="0"/>
  <variable name="x_7,8" index="70" value="0"/>
  <variable name="x_7,9" index="71" value="0"/>
  <variable name="x_8,0" index="72" value="0"/>
  <variable name="x_8,1" index="73" value="3"/>
  <variable name="x_8,2" index="74" value="0"/>
  <variable name="x_8,3" index="75" value="0"/>
  <variable name="x_8,4" index="76" value="0"/>
  <variable name="x_8,5" index="77" value="0"/>
  <variable name="x_8,6" index="78" value="0"/>
  <variable name="x_8,7" index="79" value="0"/>
  <variable name="x_8,9" index="80" value="0"/>
  <variable name="x_9,0" index="81" value="0"/>
  <variable name="x_9,1" index="82" value="0"/>
  <variable name="x_9,2" index="83" value="0"/>
  <variable name="x_9,3" index="84" value="0"/>
  <variable name="x_9,4" index="85" value="0"/>
  <variable name="x_9,5" index="86" value="0"/>
  <variable name="x_9,6" index="87" value="0"/>
  <variable name="x_9,7" index="88" value="0"/>
  <variable name="x_9,8" index="89" value="4"/>
  <variable name="y_0,1" index="90" value="0"/>
  <variable name="y_0,2" index="91" value="1"/>
  <variable name="y_0,3" index="92" value="0"/>
  <variable name="y_0,4" index="93" value="0"/>
  <variable name="y_0,5" index="94" value="0"/>
  <variable name="y_0,6" index="95" value="0"/>
  <variable name="y_0,7" index="96" value="0"/>
  <variable name="y_0,8" index="97" value="0"/>
  <variable name="y_0,9" index="98" value="0"/>
  <variable name="y_1,0" index="99" value="0"/>
  <variable name="y_1,2" index="100" value="0"/>
  <variable name="y_1,3" index="101" value="0"/>
  <variable name="y_1,4" index="102" value="0"/>
  <variable name="y_1,5" index="103" value="1"/>
  <variable name="y_1,6" index="104" value="0"/>
  <variable name="y_1,7" index="105" value="0"/>
  <variable name="y_1,8" index="106" value="0"/>
  <variable name="y_1,9" index="107" value="0"/>
  <variable name="y_2,0" index="108" value="0"/>
  <variable name="y_2,1" index="109" value="0"/>
  <variable name="y_2,3" index="110" value="0"/>
  <variable name="y_2,4" index="111" value="0"/>
  <variable name="y_2,5" index="112" value="0"/>
  <variable name="y_2,6" index="113" value="1"/>
  <variable name="y_2,7" index="114" value="0"/>
  <variable name="y_2,8" index="115" value="0"/>
  <variable name="y_2,9" index="116" value="0"/>
  <variable name="y_3,0" index="117" value="0"/>
  <variable name="y_3,1" index="118" value="0"/>
  <variable name="y_3,2" index="119" value="0"/>
  <variable name="y_3,4" index="120" value="0"/>
  <variable name="y_3,5" index="121" value="0"/>
  <variable name="y_3,6" index="122" value="0"/>
  <variable name="y_3,7" index="123" value="0"/>
  <variable name="y_3,8" index="124" value="0"/>
  <variable name="y_3,9" index="125" value="1"/>
  <variable name="y_4,0" index="126" value="0"/>
  <variable name="y_4,1" index="127" value="0"/>
  <variable name="y_4,2" index="128" value="0"/>
  <variable name="y_4,3" index="129" value="0"/>
  <variable name="y_4,5" index="130" value="0"/>
  <variable name="y_4,6" index="131" value="0"/>
  <variable name="y_4,7" index="132" value="1"/>
  <variable name="y_4,8" index="133" value="0"/>
  <variable name="y_4,9" index="134" value="0"/>
  <variable name="y_5,0" index="135" value="1"/>
  <variable name="y_5,1" index="136" value="0"/>
  <variable name="y_5,2" index="137" value="0"/>
  <variable name="y_5,3" index="138" value="0"/>
  <variable name="y_5,4" index="139" value="0"/>
  <variable name="y_5,6" index="140" value="0"/>
  <variable name="y_5,7" index="141" value="0"/>
  <variable name="y_5,8" index="142" value="0"/>
  <variable name="y_5,9" index="143" value="0"/>
  <variable name="y_6,0" index="144" value="0"/>
  <variable name="y_6,1" index="145" value="0"/>
  <variable name="y_6,2" index="146" value="0"/>
  <variable name="y_6,3" index="147" value="0"/>
  <variable name="y_6,4" index="148" value="1"/>
  <variable name="y_6,5" index="149" value="0"/>
  <variable name="y_6,7" index="150" value="0"/>
  <variable name="y_6,8" index="151" value="0"/>
  <variable name="y_6,9" index="152" value="0"/>
  <variable name="y_7,0" index="153" value="0"/>
  <variable name="y_7,1" index="154" value="0"/>
  <variable name="y_7,2" index="155" value="0"/>
  <variable name="y_7,3" index="156" value="1"/>
  <variable name="y_7,4" index="157" value="0"/>
  <variable name="y_7,5" index="158" value="0"/>
  <variable name="y_7,6" index="159" value="0"/>
  <variable name="y_7,8" index="160" value="0"/>
  <variable name="y_7,9" index="161" value="0"/>
  <variable name="y_8,0" index="162" value="0"/>
  <variable name="y_8,1" index="163" value="1"/>
  <variable name="y_8,2" index="164" value="0"/>
  <variable name="y_8,3" index="165" value="0"/>
  <variable name="y_8,4" index="166" value="0"/>
  <variable name="y_8,5" index="167" value="0"/>
  <variable name="y_8,6" index="168" value="0"/>
  <variable name="y_8,7" index="169" value="0"/>
  <variable name="y_8,9" index="170" value="0"/>
  <variable name="y_9,0" index="171" value="0"/>
  <variable name="y_9,1" index="172" value="0"/>
  <variable name="y_9,2" index="173" value="0"/>
  <variable name="y_9,3" index="174" value="0"/>
  <variable name="y_9,4" index="175" value="0"/>
  <variable name="y_9,5" index="176" value="0"/>
  <variable name="y_9,6" index="177" value="0"/>
  <variable name="y_9,7" index="178" value="0"/>
  <variable name="y_9,8" index="179" value="1"/>
 </variables>
</CPLEXSolution>
